p cnf 134 382
a 6 8 10 0
d 1 6 0
d 2 8 0
d 4 10 0
d 3 6 8 0
d 5 6 8 10 0
d 7 6 8 10 0
d 9 6 8 10 0
d 11 6 8 10 0
d 12 8 0
d 13 6 8 0
d 14 6 8 10 0
d 15 6 8 10 0
d 16 6 8 10 0
d 17 6 8 10 0
d 18 6 8 10 0
d 19 6 0
d 20 6 8 0
d 21 10 0
d 22 6 8 10 0
d 23 6 8 10 0
d 24 6 8 10 0
d 25 6 8 10 0
d 26 6 8 10 0
d 27 6 8 10 0
d 28 6 8 10 0
d 29 6 8 10 0
d 30 6 8 10 0
d 31 6 8 10 0
d 32 6 8 0
d 33 6 8 10 0
d 34 6 8 10 0
d 35 6 8 10 0
d 36 6 8 10 0
d 37 6 8 10 0
d 38 6 8 10 0
d 39 6 0
d 40 6 8 10 0
d 41 6 8 10 0
d 42 6 8 10 0
d 43 6 8 10 0
d 44 6 8 10 0
d 45 6 8 10 0
d 46 6 8 10 0
d 47 6 8 10 0
d 48 6 8 10 0
d 49 6 8 10 0
d 50 6 8 10 0
d 51 6 8 10 0
d 52 8 0
d 53 6 8 10 0
d 54 6 8 10 0
d 55 6 8 10 0
d 56 6 8 10 0
d 57 6 8 10 0
d 58 6 8 10 0
d 59 6 8 10 0
d 60 6 8 10 0
d 61 6 8 10 0
d 62 6 8 10 0
d 63 6 8 10 0
d 64 6 8 10 0
d 65 6 8 10 0
d 66 6 8 10 0
d 67 6 8 10 0
d 68 6 8 10 0
d 69 6 8 10 0
d 70 6 8 10 0
d 71 6 8 10 0
d 72 6 8 10 0
d 73 6 8 10 0
d 74 6 8 10 0
d 75 6 8 10 0
d 76 10 0
d 77 6 8 10 0
d 78 6 8 10 0
d 79 6 8 10 0
d 80 6 8 10 0
d 81 6 8 10 0
d 82 6 8 10 0
d 83 6 8 10 0
d 84 6 8 10 0
d 85 6 8 10 0
d 86 6 8 10 0
d 87 6 8 10 0
d 88 6 8 10 0
d 89 6 8 10 0
d 90 6 8 10 0
d 91 6 8 10 0
d 92 6 8 10 0
d 93 6 8 10 0
d 94 6 8 10 0
d 95 6 8 10 0
d 96 6 8 10 0
d 97 6 8 10 0
d 98 6 8 10 0
d 99 6 8 10 0
d 100 6 8 10 0
d 101 6 8 10 0
d 102 6 8 10 0
d 103 6 8 10 0
d 104 6 8 10 0
d 105 6 8 10 0
d 106 6 8 10 0
d 107 6 8 10 0
d 108 6 8 10 0
d 109 6 8 10 0
d 110 6 8 10 0
d 111 6 8 10 0
d 112 6 8 10 0
d 113 6 8 10 0
d 114 6 8 10 0
d 115 6 8 10 0
d 116 6 8 10 0
d 117 6 8 10 0
d 118 6 8 10 0
d 119 6 8 10 0
d 120 6 8 10 0
d 121 6 8 10 0
d 122 6 8 10 0
d 123 6 8 10 0
d 124 6 8 10 0
d 125 6 8 10 0
d 126 6 8 10 0
d 127 6 8 10 0
d 128 6 8 10 0
d 129 6 8 10 0
d 130 6 8 10 0
d 131 6 8 10 0
d 132 6 8 0
d 133 6 8 10 0
d 134 6 8 10 0
-3 1 0
-3 2 0
3 -1 -2 0
-5 3 0
-5 4 0
5 -3 -4 0
-7 5 0
-7 6 0
7 -5 -6 0
-9 7 0
-9 8 0
9 -7 -8 0
-11 9 0
-11 10 0
11 -9 -10 0
12 2 0
-12 -2 0
-13 1 0
-13 12 0
13 -1 -12 0
-14 13 0
-14 4 0
14 -13 -4 0
-15 14 0
-15 6 0
15 -14 -6 0
-16 15 0
-16 8 0
16 -15 -8 0
-17 16 0
-17 10 0
17 -16 -10 0
18 -11 0
18 -17 0
-18 11 17 0
19 1 0
-19 -1 0
-20 19 0
-20 2 0
20 -19 -2 0
21 4 0
-21 -4 0
-22 20 0
-22 21 0
22 -20 -21 0
-23 22 0
-23 6 0
23 -22 -6 0
-24 23 0
-24 8 0
24 -23 -8 0
-25 24 0
-25 10 0
25 -24 -10 0
26 -18 0
26 -25 0
-26 18 25 0
-27 13 0
-27 21 0
27 -13 -21 0
-28 27 0
-28 6 0
28 -27 -6 0
-29 28 0
-29 8 0
29 -28 -8 0
-30 29 0
-30 10 0
30 -29 -10 0
31 -26 0
31 -30 0
-31 26 30 0
-32 19 0
-32 12 0
32 -19 -12 0
-33 32 0
-33 21 0
33 -32 -21 0
-34 33 0
-34 6 0
34 -33 -6 0
-35 34 0
-35 8 0
35 -34 -8 0
-36 35 0
-36 10 0
36 -35 -10 0
37 -31 0
37 -36 0
-37 31 36 0
-38 20 0
-38 4 0
38 -20 -4 0
39 6 0
-39 -6 0
-40 38 0
-40 39 0
40 -38 -39 0
-41 40 0
-41 8 0
41 -40 -8 0
-42 41 0
-42 10 0
42 -41 -10 0
43 -37 0
43 -42 0
-43 37 42 0
-44 22 0
-44 39 0
44 -22 -39 0
-45 44 0
-45 8 0
45 -44 -8 0
-46 45 0
-46 10 0
46 -45 -10 0
47 -43 0
47 -46 0
-47 43 46 0
-48 27 0
-48 39 0
48 -27 -39 0
-49 48 0
-49 8 0
49 -48 -8 0
-50 49 0
-50 10 0
50 -49 -10 0
51 -47 0
51 -50 0
-51 47 50 0
52 8 0
-52 -8 0
-53 7 0
-53 52 0
53 -7 -52 0
-54 53 0
-54 10 0
54 -53 -10 0
55 -51 0
55 -54 0
-55 51 54 0
-56 3 0
-56 21 0
56 -3 -21 0
-57 56 0
-57 6 0
57 -56 -6 0
-58 57 0
-58 52 0
58 -57 -52 0
-59 58 0
-59 10 0
59 -58 -10 0
60 -55 0
60 -59 0
-60 55 59 0
-61 5 0
-61 39 0
61 -5 -39 0
-62 61 0
-62 52 0
62 -61 -52 0
-63 62 0
-63 10 0
63 -62 -10 0
64 -60 0
64 -63 0
-64 60 63 0
-65 40 0
-65 52 0
65 -40 -52 0
-66 65 0
-66 10 0
66 -65 -10 0
67 -64 0
67 -66 0
-67 64 66 0
-68 14 0
-68 39 0
68 -14 -39 0
-69 68 0
-69 52 0
69 -68 -52 0
-70 69 0
-70 10 0
70 -69 -10 0
71 -67 0
71 -70 0
-71 67 70 0
-72 33 0
-72 39 0
72 -33 -39 0
-73 72 0
-73 52 0
73 -72 -52 0
-74 73 0
-74 10 0
74 -73 -10 0
75 -71 0
75 -74 0
-75 71 74 0
76 10 0
-76 -10 0
-77 9 0
-77 76 0
77 -9 -76 0
78 -75 0
78 -77 0
-78 75 77 0
-79 38 0
-79 6 0
79 -38 -6 0
-80 79 0
-80 8 0
80 -79 -8 0
-81 80 0
-81 76 0
81 -80 -76 0
82 -78 0
82 -81 0
-82 78 81 0
-83 16 0
-83 76 0
83 -16 -76 0
84 -82 0
84 -83 0
-84 82 83 0
-85 32 0
-85 4 0
85 -32 -4 0
-86 85 0
-86 6 0
86 -85 -6 0
-87 86 0
-87 8 0
87 -86 -8 0
-88 87 0
-88 76 0
88 -87 -76 0
89 -84 0
89 -88 0
-89 84 88 0
-90 57 0
-90 8 0
90 -57 -8 0
-91 90 0
-91 76 0
91 -90 -76 0
92 -89 0
92 -91 0
-92 89 91 0
-93 24 0
-93 76 0
93 -24 -76 0
94 -92 0
94 -93 0
-94 92 93 0
-95 29 0
-95 76 0
95 -29 -76 0
96 -94 0
96 -95 0
-96 94 95 0
-97 61 0
-97 8 0
97 -61 -8 0
-98 97 0
-98 76 0
98 -97 -76 0
99 -96 0
99 -98 0
-99 96 98 0
-100 41 0
-100 76 0
100 -41 -76 0
101 -99 0
101 -100 0
-101 99 100 0
-102 56 0
-102 39 0
102 -56 -39 0
-103 102 0
-103 8 0
103 -102 -8 0
-104 103 0
-104 76 0
104 -103 -76 0
105 -101 0
105 -104 0
-105 101 104 0
-106 45 0
-106 76 0
106 -45 -76 0
107 -105 0
107 -106 0
-107 105 106 0
-108 49 0
-108 76 0
108 -49 -76 0
109 -107 0
109 -108 0
-109 107 108 0
-110 79 0
-110 52 0
110 -79 -52 0
-111 110 0
-111 76 0
111 -110 -76 0
112 -109 0
112 -111 0
-112 109 111 0
-113 58 0
-113 76 0
113 -58 -76 0
114 -112 0
114 -113 0
-114 112 113 0
-115 23 0
-115 52 0
115 -23 -52 0
-116 115 0
-116 76 0
116 -115 -76 0
117 -114 0
117 -116 0
-117 114 116 0
-118 28 0
-118 52 0
118 -28 -52 0
-119 118 0
-119 76 0
119 -118 -76 0
120 -117 0
120 -119 0
-120 117 119 0
-121 62 0
-121 76 0
121 -62 -76 0
122 -120 0
122 -121 0
-122 120 121 0
-123 69 0
-123 76 0
123 -69 -76 0
124 -122 0
124 -123 0
-124 122 123 0
-125 85 0
-125 39 0
125 -85 -39 0
-126 125 0
-126 52 0
126 -125 -52 0
-127 126 0
-127 76 0
127 -126 -76 0
128 -124 0
128 -127 0
-128 124 127 0
-129 48 0
-129 52 0
129 -48 -52 0
-130 129 0
-130 76 0
130 -129 -76 0
131 -128 0
131 -130 0
-131 128 130 0
132 -6 8 0
132 6 -8 0
-132 -6 -8 0
-132 6 8 0
133 -132 10 0
133 132 -10 0
-133 -132 -10 0
-133 132 10 0
134 -131 -133 0
134 131 133 0
-134 -131 133 0
-134 131 -133 0
134 0
